% Data file generated from RandomInstances/10_0.75_2.col DIMACS file
size = 10;

chi = 7;

adjacency = [|0,1,1,1,1,1,0,1,1,1,
|1,0,1,1,1,1,1,1,0,0,
|1,1,0,1,1,1,1,1,1,1,
|1,1,1,0,1,1,1,1,1,0,
|1,1,1,1,0,1,1,1,1,0,
|1,1,1,1,1,0,1,1,0,0,
|0,1,1,1,1,1,0,1,1,1,
|1,1,1,1,1,1,1,0,1,0,
|1,0,1,1,1,0,1,1,0,1,
|1,0,1,0,0,0,1,0,1,0,
|];